p cnf 366 1444
c p weight -13 1 0
c p weight 13 -1 0
c p weight 17 6.12323399573676603586882014729198302312846062338790031898128063403419218957424163818359375E-17 0
c p weight -17 1 0
c p weight 18 1 0
c p weight -18 1 0
c p weight -15 1 0
c p weight 15 -1 0
c p weight -19 1 0
c p weight 19 -1 0
c p weight -21 1 0
c p weight 21 -1 0
c p weight -24 1 0
c p weight 24 -1 0
c p weight -27 1 0
c p weight 27 -1 0
c p weight -30 1 0
c p weight 30 -1 0
c p weight -33 1 0
c p weight 33 -1 0
c p weight -36 1 0
c p weight 36 -1 0
c p weight 40 6.12323399573676603586882014729198302312846062338790031898128063403419218957424163818359375E-17 0
c p weight -40 1 0
c p weight 41 1 0
c p weight -41 1 0
c p weight -38 1 0
c p weight 38 -1 0
c p weight -42 1 0
c p weight 42 -1 0
c p weight 46 0.70710678118654752440084436210485 0
c p weight -46 1 0
c p weight -44 1 0
c p weight 44 -1 0
c p weight -47 1 0
c p weight 47 -1 0
c p weight 52 0.70710678118654752440084436210485 0
c p weight -52 1 0
c p weight -50 1 0
c p weight 50 -1 0
c p weight -53 1 0
c p weight 53 -1 0
c p weight 58 0.70710678118654752440084436210485 0
c p weight -58 1 0
c p weight -56 1 0
c p weight 56 -1 0
c p weight -59 1 0
c p weight 59 -1 0
c p weight 63 6.12323399573676603586882014729198302312846062338790031898128063403419218957424163818359375E-17 0
c p weight -63 1 0
c p weight 64 1 0
c p weight -64 1 0
c p weight -61 1 0
c p weight 61 -1 0
c p weight -65 1 0
c p weight 65 -1 0
c p weight 69 0.70710678118654752440084436210485 0
c p weight -69 1 0
c p weight -67 1 0
c p weight 67 -1 0
c p weight 72 0.9238795325112867384831361050601117312908172607421875 0
c p weight -72 1 0
c p weight 73 0.382683432365089781779232680491986684501171112060546875 0
c p weight -73 1 0
c p weight -70 1 0
c p weight 70 -1 0
c p weight -74 1 0
c p weight 74 -1 0
c p weight 79 0.9238795325112867384831361050601117312908172607421875 0
c p weight -79 1 0
c p weight 80 -0.382683432365089781779232680491986684501171112060546875 0
c p weight -80 1 0
c p weight -77 1 0
c p weight 77 -1 0
c p weight -81 1 0
c p weight 81 -1 0
c p weight 86 0.9238795325112867384831361050601117312908172607421875 0
c p weight -86 1 0
c p weight 87 0.382683432365089781779232680491986684501171112060546875 0
c p weight -87 1 0
c p weight -84 1 0
c p weight 84 -1 0
c p weight -88 1 0
c p weight 88 -1 0
c p weight 93 0.70710678118654752440084436210485 0
c p weight -93 1 0
c p weight -91 1 0
c p weight 91 -1 0
c p weight -94 1 0
c p weight 94 -1 0
c p weight 99 0.70710678118654752440084436210485 0
c p weight -99 1 0
c p weight -97 1 0
c p weight 97 -1 0
c p weight -100 1 0
c p weight 100 -1 0
c p weight 104 6.12323399573676603586882014729198302312846062338790031898128063403419218957424163818359375E-17 0
c p weight -104 1 0
c p weight 105 1 0
c p weight -105 1 0
c p weight -102 1 0
c p weight 102 -1 0
c p weight -106 1 0
c p weight 106 -1 0
c p weight 110 0.70710678118654752440084436210485 0
c p weight -110 1 0
c p weight -108 1 0
c p weight 108 -1 0
c p weight 113 0.9238795325112867384831361050601117312908172607421875 0
c p weight -113 1 0
c p weight 114 0.382683432365089781779232680491986684501171112060546875 0
c p weight -114 1 0
c p weight -111 1 0
c p weight 111 -1 0
c p weight 117 0.9807852804032304305792422383092343807220458984375 0
c p weight -117 1 0
c p weight 118 0.195090322016128248083788321309839375317096710205078125 0
c p weight -118 1 0
c p weight -115 1 0
c p weight 115 -1 0
c p weight -119 1 0
c p weight 119 -1 0
c p weight 124 0.9807852804032304305792422383092343807220458984375 0
c p weight -124 1 0
c p weight 125 -0.195090322016128248083788321309839375317096710205078125 0
c p weight -125 1 0
c p weight -122 1 0
c p weight 122 -1 0
c p weight -126 1 0
c p weight 126 -1 0
c p weight 131 0.9807852804032304305792422383092343807220458984375 0
c p weight -131 1 0
c p weight 132 0.195090322016128248083788321309839375317096710205078125 0
c p weight -132 1 0
c p weight -129 1 0
c p weight 129 -1 0
c p weight -133 1 0
c p weight 133 -1 0
c p weight 138 0.9238795325112867384831361050601117312908172607421875 0
c p weight -138 1 0
c p weight 139 -0.382683432365089781779232680491986684501171112060546875 0
c p weight -139 1 0
c p weight -136 1 0
c p weight 136 -1 0
c p weight -140 1 0
c p weight 140 -1 0
c p weight 145 0.9238795325112867384831361050601117312908172607421875 0
c p weight -145 1 0
c p weight 146 0.382683432365089781779232680491986684501171112060546875 0
c p weight -146 1 0
c p weight -143 1 0
c p weight 143 -1 0
c p weight -147 1 0
c p weight 147 -1 0
c p weight 152 0.70710678118654752440084436210485 0
c p weight -152 1 0
c p weight -150 1 0
c p weight 150 -1 0
c p weight -153 1 0
c p weight 153 -1 0
c p weight 158 0.70710678118654752440084436210485 0
c p weight -158 1 0
c p weight -156 1 0
c p weight 156 -1 0
c p weight -159 1 0
c p weight 159 -1 0
c p weight 163 6.12323399573676603586882014729198302312846062338790031898128063403419218957424163818359375E-17 0
c p weight -163 1 0
c p weight 164 1 0
c p weight -164 1 0
c p weight -161 1 0
c p weight 161 -1 0
c p weight -165 1 0
c p weight 165 -1 0
c p weight 169 0.70710678118654752440084436210485 0
c p weight -169 1 0
c p weight -167 1 0
c p weight 167 -1 0
c p weight 172 0.9238795325112867384831361050601117312908172607421875 0
c p weight -172 1 0
c p weight 173 0.382683432365089781779232680491986684501171112060546875 0
c p weight -173 1 0
c p weight -170 1 0
c p weight 170 -1 0
c p weight 176 0.9807852804032304305792422383092343807220458984375 0
c p weight -176 1 0
c p weight 177 0.195090322016128248083788321309839375317096710205078125 0
c p weight -177 1 0
c p weight -174 1 0
c p weight 174 -1 0
c p weight 180 0.9951847266721969287317506314138881862163543701171875 0
c p weight -180 1 0
c p weight 181 0.098017140329560603628777926132897846400737762451171875 0
c p weight -181 1 0
c p weight -178 1 0
c p weight 178 -1 0
c p weight -182 1 0
c p weight 182 -1 0
c p weight 187 0.9951847266721969287317506314138881862163543701171875 0
c p weight -187 1 0
c p weight 188 -0.098017140329560603628777926132897846400737762451171875 0
c p weight -188 1 0
c p weight -185 1 0
c p weight 185 -1 0
c p weight -189 1 0
c p weight 189 -1 0
c p weight 194 0.9951847266721969287317506314138881862163543701171875 0
c p weight -194 1 0
c p weight 195 0.098017140329560603628777926132897846400737762451171875 0
c p weight -195 1 0
c p weight -192 1 0
c p weight 192 -1 0
c p weight -196 1 0
c p weight 196 -1 0
c p weight 201 0.9807852804032304305792422383092343807220458984375 0
c p weight -201 1 0
c p weight 202 -0.195090322016128248083788321309839375317096710205078125 0
c p weight -202 1 0
c p weight -199 1 0
c p weight 199 -1 0
c p weight -203 1 0
c p weight 203 -1 0
c p weight 208 0.9807852804032304305792422383092343807220458984375 0
c p weight -208 1 0
c p weight 209 0.195090322016128248083788321309839375317096710205078125 0
c p weight -209 1 0
c p weight -206 1 0
c p weight 206 -1 0
c p weight -210 1 0
c p weight 210 -1 0
c p weight 215 0.9238795325112867384831361050601117312908172607421875 0
c p weight -215 1 0
c p weight 216 -0.382683432365089781779232680491986684501171112060546875 0
c p weight -216 1 0
c p weight -213 1 0
c p weight 213 -1 0
c p weight -217 1 0
c p weight 217 -1 0
c p weight 222 0.9238795325112867384831361050601117312908172607421875 0
c p weight -222 1 0
c p weight 223 0.382683432365089781779232680491986684501171112060546875 0
c p weight -223 1 0
c p weight -220 1 0
c p weight 220 -1 0
c p weight -224 1 0
c p weight 224 -1 0
c p weight 229 0.70710678118654752440084436210485 0
c p weight -229 1 0
c p weight -227 1 0
c p weight 227 -1 0
c p weight -230 1 0
c p weight 230 -1 0
c p weight 235 0.70710678118654752440084436210485 0
c p weight -235 1 0
c p weight -233 1 0
c p weight 233 -1 0
c p weight -236 1 0
c p weight 236 -1 0
c p weight 240 6.12323399573676603586882014729198302312846062338790031898128063403419218957424163818359375E-17 0
c p weight -240 1 0
c p weight 241 1 0
c p weight -241 1 0
c p weight -238 1 0
c p weight 238 -1 0
c p weight -242 1 0
c p weight 242 -1 0
c p weight 246 0.70710678118654752440084436210485 0
c p weight -246 1 0
c p weight -244 1 0
c p weight 244 -1 0
c p weight 249 0.9238795325112867384831361050601117312908172607421875 0
c p weight -249 1 0
c p weight 250 0.382683432365089781779232680491986684501171112060546875 0
c p weight -250 1 0
c p weight -247 1 0
c p weight 247 -1 0
c p weight 253 0.9807852804032304305792422383092343807220458984375 0
c p weight -253 1 0
c p weight 254 0.195090322016128248083788321309839375317096710205078125 0
c p weight -254 1 0
c p weight -251 1 0
c p weight 251 -1 0
c p weight 257 0.9951847266721969287317506314138881862163543701171875 0
c p weight -257 1 0
c p weight 258 0.098017140329560603628777926132897846400737762451171875 0
c p weight -258 1 0
c p weight -255 1 0
c p weight 255 -1 0
c p weight 261 0.9987954562051724050064649418345652520656585693359375 0
c p weight -261 1 0
c p weight 262 0.0490676743274180149345653489945107139647006988525390625 0
c p weight -262 1 0
c p weight -259 1 0
c p weight 259 -1 0
c p weight -263 1 0
c p weight 263 -1 0
c p weight 268 0.9987954562051724050064649418345652520656585693359375 0
c p weight -268 1 0
c p weight 269 -0.0490676743274180149345653489945107139647006988525390625 0
c p weight -269 1 0
c p weight -266 1 0
c p weight 266 -1 0
c p weight -270 1 0
c p weight 270 -1 0
c p weight 275 0.9987954562051724050064649418345652520656585693359375 0
c p weight -275 1 0
c p weight 276 0.0490676743274180149345653489945107139647006988525390625 0
c p weight -276 1 0
c p weight -273 1 0
c p weight 273 -1 0
c p weight -277 1 0
c p weight 277 -1 0
c p weight 282 0.9951847266721969287317506314138881862163543701171875 0
c p weight -282 1 0
c p weight 283 -0.098017140329560603628777926132897846400737762451171875 0
c p weight -283 1 0
c p weight -280 1 0
c p weight 280 -1 0
c p weight -284 1 0
c p weight 284 -1 0
c p weight 289 0.9951847266721969287317506314138881862163543701171875 0
c p weight -289 1 0
c p weight 290 0.098017140329560603628777926132897846400737762451171875 0
c p weight -290 1 0
c p weight -287 1 0
c p weight 287 -1 0
c p weight -291 1 0
c p weight 291 -1 0
c p weight 296 0.9807852804032304305792422383092343807220458984375 0
c p weight -296 1 0
c p weight 297 -0.195090322016128248083788321309839375317096710205078125 0
c p weight -297 1 0
c p weight -294 1 0
c p weight 294 -1 0
c p weight -298 1 0
c p weight 298 -1 0
c p weight 303 0.9807852804032304305792422383092343807220458984375 0
c p weight -303 1 0
c p weight 304 0.195090322016128248083788321309839375317096710205078125 0
c p weight -304 1 0
c p weight -301 1 0
c p weight 301 -1 0
c p weight -305 1 0
c p weight 305 -1 0
c p weight 310 0.9238795325112867384831361050601117312908172607421875 0
c p weight -310 1 0
c p weight 311 -0.382683432365089781779232680491986684501171112060546875 0
c p weight -311 1 0
c p weight -308 1 0
c p weight 308 -1 0
c p weight -312 1 0
c p weight 312 -1 0
c p weight 317 0.9238795325112867384831361050601117312908172607421875 0
c p weight -317 1 0
c p weight 318 0.382683432365089781779232680491986684501171112060546875 0
c p weight -318 1 0
c p weight -315 1 0
c p weight 315 -1 0
c p weight -319 1 0
c p weight 319 -1 0
c p weight 324 0.70710678118654752440084436210485 0
c p weight -324 1 0
c p weight -322 1 0
c p weight 322 -1 0
c p weight -325 1 0
c p weight 325 -1 0
c p weight 330 0.70710678118654752440084436210485 0
c p weight -330 1 0
c p weight -328 1 0
c p weight 328 -1 0
c p weight -331 1 0
c p weight 331 -1 0
c p weight 335 6.12323399573676603586882014729198302312846062338790031898128063403419218957424163818359375E-17 0
c p weight -335 1 0
c p weight 336 1 0
c p weight -336 1 0
c p weight -333 1 0
c p weight 333 -1 0
c p weight -337 1 0
c p weight 337 -1 0
c p weight -339 1 0
c p weight 339 -1 0
c p weight -342 1 0
c p weight 342 -1 0
c p weight -345 1 0
c p weight 345 -1 0
c p weight -348 1 0
c p weight 348 -1 0
c p weight -351 1 0
c p weight 351 -1 0
c p weight -354 1 0
c p weight 354 -1 0
c p weight -357 1 0
c p weight 357 -1 0
c p weight -360 1 0
c p weight 360 -1 0
c p weight -363 1 0
c p weight 363 -1 0
c p weight 366 0.5 0
c p weight -366 1 0
366 0
-11 0
-9 0
-7 0
-5 0
-3 0
-1 0
-13 11 0
-13 12 0
13 -11 -12 0
14 11 -12 0
14 -11 12 0
-14 11 12 0
-14 -11 -12 0
-15 16 0
-15 14 0
-15 -11 0
15 -16 11 -14 0
16 -11 14 0
-16 11 14 0
-17 14 0
16 -17 -11 0
-16 -17 11 0
16 17 11 -14 0
-16 17 -11 -14 0
-18 14 0
16 -18 11 0
-16 -18 -11 0
16 18 -11 -14 0
-16 18 11 -14 0
-19 16 0
-19 14 0
19 -16 -14 0
20 16 -14 0
20 -16 14 0
-20 16 14 0
-20 -16 -14 0
-21 16 0
-21 10 0
-21 9 -20 0
-21 -9 20 0
21 -16 9 20 -10 0
21 -16 -9 -20 -10 0
23 16 -9 0
23 -16 9 0
-23 16 9 0
-23 -16 -9 0
22 20 -10 0
22 -20 10 0
-22 20 10 0
-22 -20 -10 0
-24 23 0
-24 8 0
-24 7 -10 0
-24 -7 10 0
24 -23 7 10 -8 0
24 -23 -7 -10 -8 0
26 23 -7 0
26 -23 7 0
-26 23 7 0
-26 -23 -7 0
25 10 -8 0
25 -10 8 0
-25 10 8 0
-25 -10 -8 0
-27 26 0
-27 6 0
-27 5 -8 0
-27 -5 8 0
27 -26 5 8 -6 0
27 -26 -5 -8 -6 0
29 26 -5 0
29 -26 5 0
-29 26 5 0
-29 -26 -5 0
28 8 -6 0
28 -8 6 0
-28 8 6 0
-28 -8 -6 0
-30 29 0
-30 4 0
-30 3 -6 0
-30 -3 6 0
30 -29 3 6 -4 0
30 -29 -3 -6 -4 0
32 29 -3 0
32 -29 3 0
-32 29 3 0
-32 -29 -3 0
31 6 -4 0
31 -6 4 0
-31 6 4 0
-31 -6 -4 0
-33 32 0
-33 2 0
-33 1 -4 0
-33 -1 4 0
33 -32 1 4 -2 0
33 -32 -1 -4 -2 0
35 32 -1 0
35 -32 1 0
-35 32 1 0
-35 -32 -1 0
34 4 -2 0
34 -4 2 0
-34 4 2 0
-34 -4 -2 0
-36 16 0
-36 22 0
36 -16 -22 0
37 16 -22 0
37 -16 22 0
-37 16 22 0
-37 -16 -22 0
-38 39 0
-38 37 0
-38 -16 0
38 -39 16 -37 0
39 -16 37 0
-39 16 37 0
-40 37 0
39 -40 -16 0
-39 -40 16 0
39 40 16 -37 0
-39 40 -16 -37 0
-41 37 0
39 -41 16 0
-39 -41 -16 0
39 41 -16 -37 0
-39 41 16 -37 0
-42 39 0
-42 37 0
42 -39 -37 0
43 39 -37 0
43 -39 37 0
-43 39 37 0
-43 -39 -37 0
-44 39 0
-44 43 0
-44 -45 0
44 45 -39 -43 0
45 39 -43 0
-45 39 43 0
46 -39 0
-46 39 0
-47 39 0
-47 25 0
-47 23 -45 0
-47 -23 45 0
47 -39 23 45 -25 0
47 -39 -23 -45 -25 0
49 39 -23 0
49 -39 23 0
-49 39 23 0
-49 -39 -23 0
48 45 -25 0
48 -45 25 0
-48 45 25 0
-48 -45 -25 0
-50 51 0
-50 49 0
-50 -25 0
50 -51 -49 25 0
51 49 -25 0
-51 49 25 0
52 -49 0
-52 49 0
-53 39 0
-53 51 0
-53 49 -48 0
-53 -49 48 0
53 -39 49 48 -51 0
53 -39 -49 -48 -51 0
55 39 -49 0
55 -39 49 0
-55 39 49 0
-55 -39 -49 0
54 48 -51 0
54 -48 51 0
-54 48 51 0
-54 -48 -51 0
-56 55 0
-56 51 0
-56 -57 0
56 57 -55 -51 0
57 55 -51 0
-57 55 51 0
58 -55 0
-58 55 0
-59 55 0
-59 57 0
59 -55 -57 0
60 55 -57 0
60 -55 57 0
-60 55 57 0
-60 -55 -57 0
-61 62 0
-61 60 0
-61 -55 0
61 -62 55 -60 0
62 -55 60 0
-62 55 60 0
-63 60 0
62 -63 -55 0
-62 -63 55 0
62 63 55 -60 0
-62 63 -55 -60 0
-64 60 0
62 -64 55 0
-62 -64 -55 0
62 64 -55 -60 0
-62 64 55 -60 0
-65 62 0
-65 60 0
65 -62 -60 0
66 62 -60 0
66 -62 60 0
-66 62 60 0
-66 -62 -60 0
-67 62 0
-67 66 0
-67 -68 0
67 68 -62 -66 0
68 62 -66 0
-68 62 66 0
69 -62 0
-69 62 0
-70 39 0
-70 54 0
-70 -71 0
70 71 -39 -54 0
71 39 -54 0
-71 39 54 0
-72 39 0
71 -72 -54 0
-71 -72 54 0
71 72 -39 54 0
-71 72 -39 -54 0
-73 39 0
71 -73 54 0
-71 -73 -54 0
71 73 -39 -54 0
-71 73 -39 54 0
-74 39 0
-74 28 0
-74 26 -71 0
-74 -26 71 0
74 -39 26 71 -28 0
74 -39 -26 -71 -28 0
76 39 -26 0
76 -39 26 0
-76 39 26 0
-76 -39 -26 0
75 71 -28 0
75 -71 28 0
-75 71 28 0
-75 -71 -28 0
-77 76 0
-77 28 0
-77 -78 0
77 78 -76 -28 0
78 76 -28 0
-78 76 28 0
-79 76 0
78 -79 -28 0
-78 -79 28 0
78 79 -76 28 0
-78 79 -76 -28 0
-80 76 0
78 -80 28 0
-78 -80 -28 0
78 80 -76 -28 0
-78 80 -76 28 0
-81 39 0
-81 78 0
-81 76 -75 0
-81 -76 75 0
81 -39 76 75 -78 0
81 -39 -76 -75 -78 0
83 39 -76 0
83 -39 76 0
-83 39 76 0
-83 -39 -76 0
82 75 -78 0
82 -75 78 0
-82 75 78 0
-82 -75 -78 0
-84 83 0
-84 78 0
-84 -85 0
84 85 -83 -78 0
85 83 -78 0
-85 83 78 0
-86 83 0
85 -86 -78 0
-85 -86 78 0
85 86 -83 78 0
-85 86 -83 -78 0
-87 83 0
85 -87 78 0
-85 -87 -78 0
85 87 -83 -78 0
-85 87 -83 78 0
-88 62 0
-88 85 0
-88 83 -68 0
-88 -83 68 0
88 -62 83 68 -85 0
88 -62 -83 -68 -85 0
90 62 -83 0
90 -62 83 0
-90 62 83 0
-90 -62 -83 0
89 68 -85 0
89 -68 85 0
-89 68 85 0
-89 -68 -85 0
-91 92 0
-91 90 0
-91 -85 0
91 -92 -90 85 0
92 90 -85 0
-92 90 85 0
93 -90 0
-93 90 0
-94 62 0
-94 92 0
-94 90 -89 0
-94 -90 89 0
94 -62 90 89 -92 0
94 -62 -90 -89 -92 0
96 62 -90 0
96 -62 90 0
-96 62 90 0
-96 -62 -90 0
95 89 -92 0
95 -89 92 0
-95 89 92 0
-95 -89 -92 0
-97 96 0
-97 92 0
-97 -98 0
97 98 -96 -92 0
98 96 -92 0
-98 96 92 0
99 -96 0
-99 96 0
-100 96 0
-100 98 0
100 -96 -98 0
101 96 -98 0
101 -96 98 0
-101 96 98 0
-101 -96 -98 0
-102 103 0
-102 101 0
-102 -96 0
102 -103 96 -101 0
103 -96 101 0
-103 96 101 0
-104 101 0
103 -104 -96 0
-103 -104 96 0
103 104 96 -101 0
-103 104 -96 -101 0
-105 101 0
103 -105 96 0
-103 -105 -96 0
103 105 -96 -101 0
-103 105 96 -101 0
-106 103 0
-106 101 0
106 -103 -101 0
107 103 -101 0
107 -103 101 0
-107 103 101 0
-107 -103 -101 0
-108 103 0
-108 107 0
-108 -109 0
108 109 -103 -107 0
109 103 -107 0
-109 103 107 0
110 -103 0
-110 103 0
-111 62 0
-111 95 0
-111 -112 0
111 112 -62 -95 0
112 62 -95 0
-112 62 95 0
-113 62 0
112 -113 -95 0
-112 -113 95 0
112 113 -62 95 0
-112 113 -62 -95 0
-114 62 0
112 -114 95 0
-112 -114 -95 0
112 114 -62 -95 0
-112 114 -62 95 0
-115 39 0
-115 82 0
-115 -116 0
115 116 -39 -82 0
116 39 -82 0
-116 39 82 0
-117 39 0
116 -117 -82 0
-116 -117 82 0
116 117 -39 82 0
-116 117 -39 -82 0
-118 39 0
116 -118 82 0
-116 -118 -82 0
116 118 -39 -82 0
-116 118 -39 82 0
-119 39 0
-119 31 0
-119 29 -116 0
-119 -29 116 0
119 -39 29 116 -31 0
119 -39 -29 -116 -31 0
121 39 -29 0
121 -39 29 0
-121 39 29 0
-121 -39 -29 0
120 116 -31 0
120 -116 31 0
-120 116 31 0
-120 -116 -31 0
-122 121 0
-122 31 0
-122 -123 0
122 123 -121 -31 0
123 121 -31 0
-123 121 31 0
-124 121 0
123 -124 -31 0
-123 -124 31 0
123 124 -121 31 0
-123 124 -121 -31 0
-125 121 0
123 -125 31 0
-123 -125 -31 0
123 125 -121 -31 0
-123 125 -121 31 0
-126 39 0
-126 123 0
-126 121 -120 0
-126 -121 120 0
126 -39 121 120 -123 0
126 -39 -121 -120 -123 0
128 39 -121 0
128 -39 121 0
-128 39 121 0
-128 -39 -121 0
127 120 -123 0
127 -120 123 0
-127 120 123 0
-127 -120 -123 0
-129 128 0
-129 123 0
-129 -130 0
129 130 -128 -123 0
130 128 -123 0
-130 128 123 0
-131 128 0
130 -131 -123 0
-130 -131 123 0
130 131 -128 123 0
-130 131 -128 -123 0
-132 128 0
130 -132 123 0
-130 -132 -123 0
130 132 -128 -123 0
-130 132 -128 123 0
-133 62 0
-133 130 0
-133 128 -112 0
-133 -128 112 0
133 -62 128 112 -130 0
133 -62 -128 -112 -130 0
135 62 -128 0
135 -62 128 0
-135 62 128 0
-135 -62 -128 0
134 112 -130 0
134 -112 130 0
-134 112 130 0
-134 -112 -130 0
-136 135 0
-136 130 0
-136 -137 0
136 137 -135 -130 0
137 135 -130 0
-137 135 130 0
-138 135 0
137 -138 -130 0
-137 -138 130 0
137 138 -135 130 0
-137 138 -135 -130 0
-139 135 0
137 -139 130 0
-137 -139 -130 0
137 139 -135 -130 0
-137 139 -135 130 0
-140 62 0
-140 137 0
-140 135 -134 0
-140 -135 134 0
140 -62 135 134 -137 0
140 -62 -135 -134 -137 0
142 62 -135 0
142 -62 135 0
-142 62 135 0
-142 -62 -135 0
141 134 -137 0
141 -134 137 0
-141 134 137 0
-141 -134 -137 0
-143 142 0
-143 137 0
-143 -144 0
143 144 -142 -137 0
144 142 -137 0
-144 142 137 0
-145 142 0
144 -145 -137 0
-144 -145 137 0
144 145 -142 137 0
-144 145 -142 -137 0
-146 142 0
144 -146 137 0
-144 -146 -137 0
144 146 -142 -137 0
-144 146 -142 137 0
-147 103 0
-147 144 0
-147 142 -109 0
-147 -142 109 0
147 -103 142 109 -144 0
147 -103 -142 -109 -144 0
149 103 -142 0
149 -103 142 0
-149 103 142 0
-149 -103 -142 0
148 109 -144 0
148 -109 144 0
-148 109 144 0
-148 -109 -144 0
-150 151 0
-150 149 0
-150 -144 0
150 -151 -149 144 0
151 149 -144 0
-151 149 144 0
152 -149 0
-152 149 0
-153 103 0
-153 151 0
-153 149 -148 0
-153 -149 148 0
153 -103 149 148 -151 0
153 -103 -149 -148 -151 0
155 103 -149 0
155 -103 149 0
-155 103 149 0
-155 -103 -149 0
154 148 -151 0
154 -148 151 0
-154 148 151 0
-154 -148 -151 0
-156 155 0
-156 151 0
-156 -157 0
156 157 -155 -151 0
157 155 -151 0
-157 155 151 0
158 -155 0
-158 155 0
-159 155 0
-159 157 0
159 -155 -157 0
160 155 -157 0
160 -155 157 0
-160 155 157 0
-160 -155 -157 0
-161 162 0
-161 160 0
-161 -155 0
161 -162 155 -160 0
162 -155 160 0
-162 155 160 0
-163 160 0
162 -163 -155 0
-162 -163 155 0
162 163 155 -160 0
-162 163 -155 -160 0
-164 160 0
162 -164 155 0
-162 -164 -155 0
162 164 -155 -160 0
-162 164 155 -160 0
-165 162 0
-165 160 0
165 -162 -160 0
166 162 -160 0
166 -162 160 0
-166 162 160 0
-166 -162 -160 0
-167 162 0
-167 166 0
-167 -168 0
167 168 -162 -166 0
168 162 -166 0
-168 162 166 0
169 -162 0
-169 162 0
-170 103 0
-170 154 0
-170 -171 0
170 171 -103 -154 0
171 103 -154 0
-171 103 154 0
-172 103 0
171 -172 -154 0
-171 -172 154 0
171 172 -103 154 0
-171 172 -103 -154 0
-173 103 0
171 -173 154 0
-171 -173 -154 0
171 173 -103 -154 0
-171 173 -103 154 0
-174 62 0
-174 141 0
-174 -175 0
174 175 -62 -141 0
175 62 -141 0
-175 62 141 0
-176 62 0
175 -176 -141 0
-175 -176 141 0
175 176 -62 141 0
-175 176 -62 -141 0
-177 62 0
175 -177 141 0
-175 -177 -141 0
175 177 -62 -141 0
-175 177 -62 141 0
-178 39 0
-178 127 0
-178 -179 0
178 179 -39 -127 0
179 39 -127 0
-179 39 127 0
-180 39 0
179 -180 -127 0
-179 -180 127 0
179 180 -39 127 0
-179 180 -39 -127 0
-181 39 0
179 -181 127 0
-179 -181 -127 0
179 181 -39 -127 0
-179 181 -39 127 0
-182 39 0
-182 34 0
-182 32 -179 0
-182 -32 179 0
182 -39 32 179 -34 0
182 -39 -32 -179 -34 0
184 39 -32 0
184 -39 32 0
-184 39 32 0
-184 -39 -32 0
183 179 -34 0
183 -179 34 0
-183 179 34 0
-183 -179 -34 0
-185 184 0
-185 34 0
-185 -186 0
185 186 -184 -34 0
186 184 -34 0
-186 184 34 0
-187 184 0
186 -187 -34 0
-186 -187 34 0
186 187 -184 34 0
-186 187 -184 -34 0
-188 184 0
186 -188 34 0
-186 -188 -34 0
186 188 -184 -34 0
-186 188 -184 34 0
-189 39 0
-189 186 0
-189 184 -183 0
-189 -184 183 0
189 -39 184 183 -186 0
189 -39 -184 -183 -186 0
191 39 -184 0
191 -39 184 0
-191 39 184 0
-191 -39 -184 0
190 183 -186 0
190 -183 186 0
-190 183 186 0
-190 -183 -186 0
-192 191 0
-192 186 0
-192 -193 0
192 193 -191 -186 0
193 191 -186 0
-193 191 186 0
-194 191 0
193 -194 -186 0
-193 -194 186 0
193 194 -191 186 0
-193 194 -191 -186 0
-195 191 0
193 -195 186 0
-193 -195 -186 0
193 195 -191 -186 0
-193 195 -191 186 0
-196 62 0
-196 193 0
-196 191 -175 0
-196 -191 175 0
196 -62 191 175 -193 0
196 -62 -191 -175 -193 0
198 62 -191 0
198 -62 191 0
-198 62 191 0
-198 -62 -191 0
197 175 -193 0
197 -175 193 0
-197 175 193 0
-197 -175 -193 0
-199 198 0
-199 193 0
-199 -200 0
199 200 -198 -193 0
200 198 -193 0
-200 198 193 0
-201 198 0
200 -201 -193 0
-200 -201 193 0
200 201 -198 193 0
-200 201 -198 -193 0
-202 198 0
200 -202 193 0
-200 -202 -193 0
200 202 -198 -193 0
-200 202 -198 193 0
-203 62 0
-203 200 0
-203 198 -197 0
-203 -198 197 0
203 -62 198 197 -200 0
203 -62 -198 -197 -200 0
205 62 -198 0
205 -62 198 0
-205 62 198 0
-205 -62 -198 0
204 197 -200 0
204 -197 200 0
-204 197 200 0
-204 -197 -200 0
-206 205 0
-206 200 0
-206 -207 0
206 207 -205 -200 0
207 205 -200 0
-207 205 200 0
-208 205 0
207 -208 -200 0
-207 -208 200 0
207 208 -205 200 0
-207 208 -205 -200 0
-209 205 0
207 -209 200 0
-207 -209 -200 0
207 209 -205 -200 0
-207 209 -205 200 0
-210 103 0
-210 207 0
-210 205 -171 0
-210 -205 171 0
210 -103 205 171 -207 0
210 -103 -205 -171 -207 0
212 103 -205 0
212 -103 205 0
-212 103 205 0
-212 -103 -205 0
211 171 -207 0
211 -171 207 0
-211 171 207 0
-211 -171 -207 0
-213 212 0
-213 207 0
-213 -214 0
213 214 -212 -207 0
214 212 -207 0
-214 212 207 0
-215 212 0
214 -215 -207 0
-214 -215 207 0
214 215 -212 207 0
-214 215 -212 -207 0
-216 212 0
214 -216 207 0
-214 -216 -207 0
214 216 -212 -207 0
-214 216 -212 207 0
-217 103 0
-217 214 0
-217 212 -211 0
-217 -212 211 0
217 -103 212 211 -214 0
217 -103 -212 -211 -214 0
219 103 -212 0
219 -103 212 0
-219 103 212 0
-219 -103 -212 0
218 211 -214 0
218 -211 214 0
-218 211 214 0
-218 -211 -214 0
-220 219 0
-220 214 0
-220 -221 0
220 221 -219 -214 0
221 219 -214 0
-221 219 214 0
-222 219 0
221 -222 -214 0
-221 -222 214 0
221 222 -219 214 0
-221 222 -219 -214 0
-223 219 0
221 -223 214 0
-221 -223 -214 0
221 223 -219 -214 0
-221 223 -219 214 0
-224 162 0
-224 221 0
-224 219 -168 0
-224 -219 168 0
224 -162 219 168 -221 0
224 -162 -219 -168 -221 0
226 162 -219 0
226 -162 219 0
-226 162 219 0
-226 -162 -219 0
225 168 -221 0
225 -168 221 0
-225 168 221 0
-225 -168 -221 0
-227 228 0
-227 226 0
-227 -221 0
227 -228 -226 221 0
228 226 -221 0
-228 226 221 0
229 -226 0
-229 226 0
-230 162 0
-230 228 0
-230 226 -225 0
-230 -226 225 0
230 -162 226 225 -228 0
230 -162 -226 -225 -228 0
232 162 -226 0
232 -162 226 0
-232 162 226 0
-232 -162 -226 0
231 225 -228 0
231 -225 228 0
-231 225 228 0
-231 -225 -228 0
-233 232 0
-233 228 0
-233 -234 0
233 234 -232 -228 0
234 232 -228 0
-234 232 228 0
235 -232 0
-235 232 0
-236 232 0
-236 234 0
236 -232 -234 0
237 232 -234 0
237 -232 234 0
-237 232 234 0
-237 -232 -234 0
-238 239 0
-238 237 0
-238 -232 0
238 -239 232 -237 0
239 -232 237 0
-239 232 237 0
-240 237 0
239 -240 -232 0
-239 -240 232 0
239 240 232 -237 0
-239 240 -232 -237 0
-241 237 0
239 -241 232 0
-239 -241 -232 0
239 241 -232 -237 0
-239 241 232 -237 0
-242 239 0
-242 237 0
242 -239 -237 0
243 239 -237 0
243 -239 237 0
-243 239 237 0
-243 -239 -237 0
-244 239 0
-244 243 0
-244 -245 0
244 245 -239 -243 0
245 239 -243 0
-245 239 243 0
246 -239 0
-246 239 0
-247 162 0
-247 231 0
-247 -248 0
247 248 -162 -231 0
248 162 -231 0
-248 162 231 0
-249 162 0
248 -249 -231 0
-248 -249 231 0
248 249 -162 231 0
-248 249 -162 -231 0
-250 162 0
248 -250 231 0
-248 -250 -231 0
248 250 -162 -231 0
-248 250 -162 231 0
-251 103 0
-251 218 0
-251 -252 0
251 252 -103 -218 0
252 103 -218 0
-252 103 218 0
-253 103 0
252 -253 -218 0
-252 -253 218 0
252 253 -103 218 0
-252 253 -103 -218 0
-254 103 0
252 -254 218 0
-252 -254 -218 0
252 254 -103 -218 0
-252 254 -103 218 0
-255 62 0
-255 204 0
-255 -256 0
255 256 -62 -204 0
256 62 -204 0
-256 62 204 0
-257 62 0
256 -257 -204 0
-256 -257 204 0
256 257 -62 204 0
-256 257 -62 -204 0
-258 62 0
256 -258 204 0
-256 -258 -204 0
256 258 -62 -204 0
-256 258 -62 204 0
-259 39 0
-259 190 0
-259 -260 0
259 260 -39 -190 0
260 39 -190 0
-260 39 190 0
-261 39 0
260 -261 -190 0
-260 -261 190 0
260 261 -39 190 0
-260 261 -39 -190 0
-262 39 0
260 -262 190 0
-260 -262 -190 0
260 262 -39 -190 0
-260 262 -39 190 0
-263 39 0
-263 2 0
-263 35 -260 0
-263 -35 260 0
263 -39 35 260 -2 0
263 -39 -35 -260 -2 0
265 39 -35 0
265 -39 35 0
-265 39 35 0
-265 -39 -35 0
264 260 -2 0
264 -260 2 0
-264 260 2 0
-264 -260 -2 0
-266 265 0
-266 2 0
-266 -267 0
266 267 -265 -2 0
267 265 -2 0
-267 265 2 0
-268 265 0
267 -268 -2 0
-267 -268 2 0
267 268 -265 2 0
-267 268 -265 -2 0
-269 265 0
267 -269 2 0
-267 -269 -2 0
267 269 -265 -2 0
-267 269 -265 2 0
-270 39 0
-270 267 0
-270 265 -264 0
-270 -265 264 0
270 -39 265 264 -267 0
270 -39 -265 -264 -267 0
272 39 -265 0
272 -39 265 0
-272 39 265 0
-272 -39 -265 0
271 264 -267 0
271 -264 267 0
-271 264 267 0
-271 -264 -267 0
-273 272 0
-273 267 0
-273 -274 0
273 274 -272 -267 0
274 272 -267 0
-274 272 267 0
-275 272 0
274 -275 -267 0
-274 -275 267 0
274 275 -272 267 0
-274 275 -272 -267 0
-276 272 0
274 -276 267 0
-274 -276 -267 0
274 276 -272 -267 0
-274 276 -272 267 0
-277 62 0
-277 274 0
-277 272 -256 0
-277 -272 256 0
277 -62 272 256 -274 0
277 -62 -272 -256 -274 0
279 62 -272 0
279 -62 272 0
-279 62 272 0
-279 -62 -272 0
278 256 -274 0
278 -256 274 0
-278 256 274 0
-278 -256 -274 0
-280 279 0
-280 274 0
-280 -281 0
280 281 -279 -274 0
281 279 -274 0
-281 279 274 0
-282 279 0
281 -282 -274 0
-281 -282 274 0
281 282 -279 274 0
-281 282 -279 -274 0
-283 279 0
281 -283 274 0
-281 -283 -274 0
281 283 -279 -274 0
-281 283 -279 274 0
-284 62 0
-284 281 0
-284 279 -278 0
-284 -279 278 0
284 -62 279 278 -281 0
284 -62 -279 -278 -281 0
286 62 -279 0
286 -62 279 0
-286 62 279 0
-286 -62 -279 0
285 278 -281 0
285 -278 281 0
-285 278 281 0
-285 -278 -281 0
-287 286 0
-287 281 0
-287 -288 0
287 288 -286 -281 0
288 286 -281 0
-288 286 281 0
-289 286 0
288 -289 -281 0
-288 -289 281 0
288 289 -286 281 0
-288 289 -286 -281 0
-290 286 0
288 -290 281 0
-288 -290 -281 0
288 290 -286 -281 0
-288 290 -286 281 0
-291 103 0
-291 288 0
-291 286 -252 0
-291 -286 252 0
291 -103 286 252 -288 0
291 -103 -286 -252 -288 0
293 103 -286 0
293 -103 286 0
-293 103 286 0
-293 -103 -286 0
292 252 -288 0
292 -252 288 0
-292 252 288 0
-292 -252 -288 0
-294 293 0
-294 288 0
-294 -295 0
294 295 -293 -288 0
295 293 -288 0
-295 293 288 0
-296 293 0
295 -296 -288 0
-295 -296 288 0
295 296 -293 288 0
-295 296 -293 -288 0
-297 293 0
295 -297 288 0
-295 -297 -288 0
295 297 -293 -288 0
-295 297 -293 288 0
-298 103 0
-298 295 0
-298 293 -292 0
-298 -293 292 0
298 -103 293 292 -295 0
298 -103 -293 -292 -295 0
300 103 -293 0
300 -103 293 0
-300 103 293 0
-300 -103 -293 0
299 292 -295 0
299 -292 295 0
-299 292 295 0
-299 -292 -295 0
-301 300 0
-301 295 0
-301 -302 0
301 302 -300 -295 0
302 300 -295 0
-302 300 295 0
-303 300 0
302 -303 -295 0
-302 -303 295 0
302 303 -300 295 0
-302 303 -300 -295 0
-304 300 0
302 -304 295 0
-302 -304 -295 0
302 304 -300 -295 0
-302 304 -300 295 0
-305 162 0
-305 302 0
-305 300 -248 0
-305 -300 248 0
305 -162 300 248 -302 0
305 -162 -300 -248 -302 0
307 162 -300 0
307 -162 300 0
-307 162 300 0
-307 -162 -300 0
306 248 -302 0
306 -248 302 0
-306 248 302 0
-306 -248 -302 0
-308 307 0
-308 302 0
-308 -309 0
308 309 -307 -302 0
309 307 -302 0
-309 307 302 0
-310 307 0
309 -310 -302 0
-309 -310 302 0
309 310 -307 302 0
-309 310 -307 -302 0
-311 307 0
309 -311 302 0
-309 -311 -302 0
309 311 -307 -302 0
-309 311 -307 302 0
-312 162 0
-312 309 0
-312 307 -306 0
-312 -307 306 0
312 -162 307 306 -309 0
312 -162 -307 -306 -309 0
314 162 -307 0
314 -162 307 0
-314 162 307 0
-314 -162 -307 0
313 306 -309 0
313 -306 309 0
-313 306 309 0
-313 -306 -309 0
-315 314 0
-315 309 0
-315 -316 0
315 316 -314 -309 0
316 314 -309 0
-316 314 309 0
-317 314 0
316 -317 -309 0
-316 -317 309 0
316 317 -314 309 0
-316 317 -314 -309 0
-318 314 0
316 -318 309 0
-316 -318 -309 0
316 318 -314 -309 0
-316 318 -314 309 0
-319 239 0
-319 316 0
-319 314 -245 0
-319 -314 245 0
319 -239 314 245 -316 0
319 -239 -314 -245 -316 0
321 239 -314 0
321 -239 314 0
-321 239 314 0
-321 -239 -314 0
320 245 -316 0
320 -245 316 0
-320 245 316 0
-320 -245 -316 0
-322 323 0
-322 321 0
-322 -316 0
322 -323 -321 316 0
323 321 -316 0
-323 321 316 0
324 -321 0
-324 321 0
-325 239 0
-325 323 0
-325 321 -320 0
-325 -321 320 0
325 -239 321 320 -323 0
325 -239 -321 -320 -323 0
327 239 -321 0
327 -239 321 0
-327 239 321 0
-327 -239 -321 0
326 320 -323 0
326 -320 323 0
-326 320 323 0
-326 -320 -323 0
-328 327 0
-328 323 0
-328 -329 0
328 329 -327 -323 0
329 327 -323 0
-329 327 323 0
330 -327 0
-330 327 0
-331 327 0
-331 329 0
331 -327 -329 0
332 327 -329 0
332 -327 329 0
-332 327 329 0
-332 -327 -329 0
-333 334 0
-333 332 0
-333 -327 0
333 -334 327 -332 0
334 -327 332 0
-334 327 332 0
-335 332 0
334 -335 -327 0
-334 -335 327 0
334 335 327 -332 0
-334 335 -327 -332 0
-336 332 0
334 -336 327 0
-334 -336 -327 0
334 336 -327 -332 0
-334 336 327 -332 0
-337 334 0
-337 332 0
337 -334 -332 0
338 334 -332 0
338 -334 332 0
-338 334 332 0
-338 -334 -332 0
-339 334 0
-339 271 0
-339 39 -338 0
-339 -39 338 0
339 -334 39 338 -271 0
339 -334 -39 -338 -271 0
341 334 -39 0
341 -334 39 0
-341 334 39 0
-341 -334 -39 0
340 338 -271 0
340 -338 271 0
-340 338 271 0
-340 -338 -271 0
-342 239 0
-342 285 0
-342 62 -326 0
-342 -62 326 0
342 -239 62 326 -285 0
342 -239 -62 -326 -285 0
344 239 -62 0
344 -239 62 0
-344 239 62 0
-344 -239 -62 0
343 326 -285 0
343 -326 285 0
-343 326 285 0
-343 -326 -285 0
-345 162 0
-345 299 0
-345 103 -313 0
-345 -103 313 0
345 -162 103 313 -299 0
345 -162 -103 -313 -299 0
347 162 -103 0
347 -162 103 0
-347 162 103 0
-347 -162 -103 0
346 313 -299 0
346 -313 299 0
-346 313 299 0
-346 -313 -299 0
-348 347 0
-348 346 0
-348 162 -299 0
-348 -162 299 0
348 -347 162 299 -346 0
348 -347 -162 -299 -346 0
350 347 -162 0
350 -347 162 0
-350 347 162 0
-350 -347 -162 0
349 299 -346 0
349 -299 346 0
-349 299 346 0
-349 -299 -346 0
-351 350 0
-351 349 0
-351 347 -346 0
-351 -347 346 0
351 -350 347 346 -349 0
351 -350 -347 -346 -349 0
353 350 -347 0
353 -350 347 0
-353 350 347 0
-353 -350 -347 0
352 346 -349 0
352 -346 349 0
-352 346 349 0
-352 -346 -349 0
-354 344 0
-354 343 0
-354 239 -285 0
-354 -239 285 0
354 -344 239 285 -343 0
354 -344 -239 -285 -343 0
356 344 -239 0
356 -344 239 0
-356 344 239 0
-356 -344 -239 0
355 285 -343 0
355 -285 343 0
-355 285 343 0
-355 -285 -343 0
-357 356 0
-357 355 0
-357 344 -343 0
-357 -344 343 0
357 -356 344 343 -355 0
357 -356 -344 -343 -355 0
359 356 -344 0
359 -356 344 0
-359 356 344 0
-359 -356 -344 0
358 343 -355 0
358 -343 355 0
-358 343 355 0
-358 -343 -355 0
-360 341 0
-360 340 0
-360 334 -271 0
-360 -334 271 0
360 -341 334 271 -340 0
360 -341 -334 -271 -340 0
362 341 -334 0
362 -341 334 0
-362 341 334 0
-362 -341 -334 0
361 271 -340 0
361 -271 340 0
-361 271 340 0
-361 -271 -340 0
-363 362 0
-363 361 0
-363 341 -340 0
-363 -341 340 0
363 -362 341 340 -361 0
363 -362 -341 -340 -361 0
365 362 -341 0
365 -362 341 0
-365 362 341 0
-365 -362 -341 0
364 340 -361 0
364 -340 361 0
-364 340 361 0
-364 -340 -361 0
-362 0
-356 0
-358 0
-350 0
-352 0
-353 0
-349 0
-359 0
-355 0
-365 0
-361 0
